;symbolic execution tree
(push)
(assert (le x0 java.lang.Object))
(check-sat)
(push)
(assert (le x1 java.lang.Object))
(check-sat)
(push)
(assert (le x2 java.lang.Object))
(check-sat)
(push)
(assert (le x3 java.lang.Object))
(check-sat)
(push)
(assert (le x4 java.lang.Object))
(check-sat)
(push)
(assert (le x5 java.lang.Object))
(check-sat)
(push)
(assert (le x6 java.lang.Object))
(check-sat)
(push)
(assert (le x7 java.lang.Object))
(check-sat)
(push)
(assert (= x1 java.lang.String))
(check-sat)
(push)
(assert (le x6 weka.core.converters.AbstractFileLoader))
(check-sat)
(push)
(assert (le x2 weka.core.Instances))
(check-sat)
(pop)
(push)
(assert (not (le x2 weka.core.Instances)))
(check-sat)
(push)
(assert (= x1 java.lang.String))
(check-sat)
(pop)
(push)
(assert (not (= x1 java.lang.String)))
(check-sat)
(pop)
(pop)
(push)
(assert (le x6 weka.core.converters.AbstractLoader))
(check-sat)
(pop)
(push)
(assert (not (le x6 weka.core.converters.AbstractLoader)))
(check-sat)
(push)
(assert (le x6 weka.core.converters.AbstractLoader))
(check-sat)
(pop)
(push)
(assert (not (le x6 weka.core.converters.AbstractLoader)))
(check-sat)
(pop)
(push)
(assert (= x1 java.lang.String))
(check-sat)
(pop)
(push)
(assert (not (= x1 java.lang.String)))
(check-sat)
(pop)
(pop)
(push)
(assert (= x5 java.lang.String))
(check-sat)
(push)
(assert (= x5 java.lang.String))
(check-sat)
(pop)
(push)
(assert (not (= x5 java.lang.String)))
(check-sat)
(pop)
(pop)
(push)
(assert (not (= x5 java.lang.String)))
(check-sat)
(pop)
(pop)
(push)
(assert (not (le x6 weka.core.converters.AbstractFileLoader)))
(check-sat)
(push)
(assert (le x6 weka.core.converters.ArffLoader))
(check-sat)
(pop)
(push)
(assert (not (le x6 weka.core.converters.ArffLoader)))
(check-sat)
(push)
(assert (= x5 java.lang.String))
(check-sat)
(pop)
(push)
(assert (not (= x5 java.lang.String)))
(check-sat)
(pop)
(pop)
(push)
(assert (= x2 java.lang.String))
(check-sat)
(pop)
(push)
(assert (not (= x2 java.lang.String)))
(check-sat)
(pop)
(push)
(assert (le x4 java.util.Vector))
(check-sat)
(pop)
(push)
(assert (not (le x4 java.util.Vector)))
(check-sat)
(pop)
(push)
(assert (le x2 weka.core.Instance))
(check-sat)
(pop)
(push)
(assert (not (le x2 weka.core.Instance)))
(check-sat)
(pop)
(push)
(assert (le x0 weka.core.FastVector))
(check-sat)
(push)
(assert (le x6 weka.core.converters.ArffLoader))
(check-sat)
(pop)
(push)
(assert (not (le x6 weka.core.converters.ArffLoader)))
(check-sat)
(pop)
(pop)
(push)
(assert (not (le x0 weka.core.FastVector)))
(check-sat)
(pop)
(pop)
(push)
(assert (= x0 java.lang.String))
(check-sat)
(push)
(assert (le x2 weka.core.Instance))
(check-sat)
(push)
(assert (le x6 weka.core.Queue_currencysign_QueueNode))
(check-sat)
(pop)
(push)
(assert (not (le x6 weka.core.Queue_currencysign_QueueNode)))
(check-sat)
(pop)
(pop)
(push)
(assert (not (le x2 weka.core.Instance)))
(check-sat)
(push)
(assert (le x3 java.util.Vector))
(check-sat)
(pop)
(push)
(assert (not (le x3 java.util.Vector)))
(check-sat)
(pop)
(pop)
(push)
(assert (le x3 weka.core.Instances))
(check-sat)
(pop)
(push)
(assert (not (le x3 weka.core.Instances)))
(check-sat)
(push)
(assert (= x4 java.lang.String))
(check-sat)
(pop)
(push)
(assert (not (= x4 java.lang.String)))
(check-sat)
(push)
(assert (= x1 java.lang.String))
(check-sat)
(pop)
(push)
(assert (not (= x1 java.lang.String)))
(check-sat)
(pop)
(pop)
(pop)
(push)
(assert (le x2 weka.core.Instances))
(check-sat)
(pop)
(push)
(assert (not (le x2 weka.core.Instances)))
(check-sat)
(pop)
(push)
(assert (le x4 weka.core.Instances))
(check-sat)
(push)
(assert (le x4 weka.core.Instances))
(check-sat)
(pop)
(push)
(assert (not (le x4 weka.core.Instances)))
(check-sat)
(pop)
(pop)
(push)
(assert (not (le x4 weka.core.Instances)))
(check-sat)
(pop)
(pop)
(push)
(assert (not (= x0 java.lang.String)))
(check-sat)
(push)
(assert (le x4 weka.core.Instance))
(check-sat)
(pop)
(push)
(assert (not (le x4 weka.core.Instance)))
(check-sat)
(pop)
(push)
(assert (le x4 weka.filters.unsupervised.instance.RemoveFolds))
(check-sat)
(pop)
(push)
(assert (not (le x4 weka.filters.unsupervised.instance.RemoveFolds)))
(check-sat)
(push)
(assert (= x1 java.lang.String))
(check-sat)
(pop)
(push)
(assert (not (= x1 java.lang.String)))
(check-sat)
(pop)
(pop)
(push)
(assert (le x7 weka.core.Instances))
(check-sat)
(pop)
(push)
(assert (not (le x7 weka.core.Instances)))
(check-sat)
(pop)
(pop)
(push)
(assert (le x2 weka.core.FastVector))
(check-sat)
(pop)
(push)
(assert (not (le x2 weka.core.FastVector)))
(check-sat)
(pop)
(pop)
(push)
(assert (not (= x1 java.lang.String)))
(check-sat)
(push)
(assert (= x5 java.lang.StringBuffer))
(check-sat)
(push)
(assert (le x7 java.util.Properties))
(check-sat)
(push)
(assert (le x2 weka.core.Instance))
(check-sat)
(pop)
(push)
(assert (not (le x2 weka.core.Instance)))
(check-sat)
(pop)
(pop)
(push)
(assert (not (le x7 java.util.Properties)))
(check-sat)
(push)
(assert (= x1 java.lang.String))
(check-sat)
(pop)
(push)
(assert (not (= x1 java.lang.String)))
(check-sat)
(push)
(assert (le x2 weka.core.Instance))
(check-sat)
(pop)
(push)
(assert (not (le x2 weka.core.Instance)))
(check-sat)
(pop)
(pop)
(pop)
(push)
(assert (= x4 java.lang.StringBuilder))
(check-sat)
(pop)
(push)
(assert (not (= x4 java.lang.StringBuilder)))
(check-sat)
(pop)
(push)
(assert (= x1 java.lang.String))
(check-sat)
(pop)
(push)
(assert (not (= x1 java.lang.String)))
(check-sat)
(push)
(assert (le x6 java.util.Vector))
(check-sat)
(pop)
(push)
(assert (not (le x6 java.util.Vector)))
(check-sat)
(pop)
(push)
(assert (= x5 java.lang.StringBuffer))
(check-sat)
(pop)
(push)
(assert (not (= x5 java.lang.StringBuffer)))
(check-sat)
(pop)
(pop)
(push)
(assert (= x5 java.lang.StringBuffer))
(check-sat)
(push)
(assert (le x0 java.util.Vector))
(check-sat)
(pop)
(push)
(assert (not (le x0 java.util.Vector)))
(check-sat)
(push)
(assert (= x2 java.lang.Boolean))
(check-sat)
(pop)
(push)
(assert (not (= x2 java.lang.Boolean)))
(check-sat)
(pop)
(pop)
(pop)
(push)
(assert (not (= x5 java.lang.StringBuffer)))
(check-sat)
(pop)
(pop)
(push)
(assert (not (= x5 java.lang.StringBuffer)))
(check-sat)
(pop)
(push)
(assert (= x1 java.lang.String))
(check-sat)
(pop)
(push)
(assert (not (= x1 java.lang.String)))
(check-sat)
(pop)
(push)
(assert (le x0 weka.core.Instance))
(check-sat)
(pop)
(push)
(assert (not (le x0 weka.core.Instance)))
(check-sat)
(push)
(assert (= x4 java.lang.String))
(check-sat)
(pop)
(push)
(assert (not (= x4 java.lang.String)))
(check-sat)
(pop)
(push)
(assert (= x2 java.lang.String))
(check-sat)
(pop)
(push)
(assert (not (= x2 java.lang.String)))
(check-sat)
(push)
(assert (= x5 java.lang.String))
(check-sat)
(pop)
(push)
(assert (not (= x5 java.lang.String)))
(check-sat)
(pop)
(push)
(assert (= x1 java.lang.String))
(check-sat)
(pop)
(push)
(assert (not (= x1 java.lang.String)))
(check-sat)
(pop)
(push)
(assert (= x7 weka.classifiers.trees.m5.Impurity))
(check-sat)
(pop)
(push)
(assert (not (= x7 weka.classifiers.trees.m5.Impurity)))
(check-sat)
(pop)
(push)
(assert (le x5 java.util.Vector))
(check-sat)
(pop)
(push)
(assert (not (le x5 java.util.Vector)))
(check-sat)
(pop)
(pop)
(push)
(assert (le x7 weka.core.Instances))
(check-sat)
(push)
(assert (= x1 java.lang.String))
(check-sat)
(pop)
(push)
(assert (not (= x1 java.lang.String)))
(check-sat)
(pop)
(pop)
(push)
(assert (not (le x7 weka.core.Instances)))
(check-sat)
(pop)
(push)
(assert (le x0 weka.core.Instance))
(check-sat)
(pop)
(push)
(assert (not (le x0 weka.core.Instance)))
(check-sat)
(push)
(assert (le x6 weka.core.Instance))
(check-sat)
(pop)
(push)
(assert (not (le x6 weka.core.Instance)))
(check-sat)
(pop)
(pop)
(push)
(assert (= x4 java.lang.String))
(check-sat)
(push)
(assert (le x2 java.util.Vector))
(check-sat)
(pop)
(push)
(assert (not (le x2 java.util.Vector)))
(check-sat)
(push)
(assert (= x1 java.lang.String))
(check-sat)
(pop)
(push)
(assert (not (= x1 java.lang.String)))
(check-sat)
(pop)
(pop)
(push)
(assert (= x6 java.lang.String))
(check-sat)
(pop)
(push)
(assert (not (= x6 java.lang.String)))
(check-sat)
(pop)
(push)
(assert (le x0 weka.core.Instance))
(check-sat)
(pop)
(push)
(assert (not (le x0 weka.core.Instance)))
(check-sat)
(pop)
(pop)
(push)
(assert (not (= x4 java.lang.String)))
(check-sat)
(pop)
(push)
(assert (le x3 weka.core.Instances))
(check-sat)
(pop)
(push)
(assert (not (le x3 weka.core.Instances)))
(check-sat)
(pop)
(pop)
(push)
(assert (le x4 weka.core.AttributeLocator))
(check-sat)
(push)
(assert (le x7 weka.estimators.DiscreteEstimator))
(check-sat)
(pop)
(push)
(assert (not (le x7 weka.estimators.DiscreteEstimator)))
(check-sat)
(pop)
(pop)
(push)
(assert (not (le x4 weka.core.AttributeLocator)))
(check-sat)
(pop)
(push)
(assert (le x5 weka.core.AttributeLocator))
(check-sat)
(push)
(assert (= x7 java.lang.Boolean))
(check-sat)
(pop)
(push)
(assert (not (= x7 java.lang.Boolean)))
(check-sat)
(push)
(assert (= x7 java.lang.Boolean))
(check-sat)
(pop)
(push)
(assert (not (= x7 java.lang.Boolean)))
(check-sat)
(pop)
(pop)
(pop)
(push)
(assert (not (le x5 weka.core.AttributeLocator)))
(check-sat)
(push)
(assert (= x0 java.lang.String))
(check-sat)
(push)
(assert (= x4 java.lang.Boolean))
(check-sat)
(pop)
(push)
(assert (not (= x4 java.lang.Boolean)))
(check-sat)
(pop)
(push)
(assert (= x1 java.lang.String))
(check-sat)
(pop)
(push)
(assert (not (= x1 java.lang.String)))
(check-sat)
(push)
(assert (= x1 java.lang.String))
(check-sat)
(pop)
(push)
(assert (not (= x1 java.lang.String)))
(check-sat)
(pop)
(push)
(assert (= x3 java.lang.String))
(check-sat)
(pop)
(push)
(assert (not (= x3 java.lang.String)))
(check-sat)
(pop)
(pop)
(push)
(assert (le x7 java.util.Vector))
(check-sat)
(pop)
(push)
(assert (not (le x7 java.util.Vector)))
(check-sat)
(pop)
(pop)
(push)
(assert (not (= x0 java.lang.String)))
(check-sat)
(pop)
(push)
(assert (= x1 java.lang.String))
(check-sat)
(pop)
(push)
(assert (not (= x1 java.lang.String)))
(check-sat)
(push)
(assert (le x5 weka.core.AttributeLocator))
(check-sat)
(pop)
(push)
(assert (not (le x5 weka.core.AttributeLocator)))
(check-sat)
(pop)
(pop)
(push)
(assert (le x2 java.util.Vector))
(check-sat)
(push)
(assert (le x7 weka.core.Instance))
(check-sat)
(push)
(assert (le x6 weka.core.FastVector))
(check-sat)
(pop)
(push)
(assert (not (le x6 weka.core.FastVector)))
(check-sat)
(pop)
(push)
(assert (le x3 weka.core.Instances))
(check-sat)
(pop)
(push)
(assert (not (le x3 weka.core.Instances)))
(check-sat)
(pop)
(pop)
(push)
(assert (not (le x7 weka.core.Instance)))
(check-sat)
(pop)
(push)
(assert (le x6 weka.core.Instance))
(check-sat)
(pop)
(push)
(assert (not (le x6 weka.core.Instance)))
(check-sat)
(pop)
(push)
(assert (le x2 java.util.Vector))
(check-sat)
(pop)
(push)
(assert (not (le x2 java.util.Vector)))
(check-sat)
(pop)
(pop)
(push)
(assert (not (le x2 java.util.Vector)))
(check-sat)
(push)
(assert (= x6 java.lang.String))
(check-sat)
(pop)
(push)
(assert (not (= x6 java.lang.String)))
(check-sat)
(pop)
(pop)
(pop)
(push)
(assert (= x6 java.lang.StringBuffer))
(check-sat)
(pop)
(push)
(assert (not (= x6 java.lang.StringBuffer)))
(check-sat)
(push)
(assert (le x0 weka.core.Instances))
(check-sat)
(push)
(assert (le x7 java.util.Vector))
(check-sat)
(pop)
(push)
(assert (not (le x7 java.util.Vector)))
(check-sat)
(push)
(assert (le x0 weka.core.Instances))
(check-sat)
(pop)
(push)
(assert (not (le x0 weka.core.Instances)))
(check-sat)
(pop)
(pop)
(pop)
(push)
(assert (not (le x0 weka.core.Instances)))
(check-sat)
(pop)
(push)
(assert (le x0 weka.classifiers.Evaluation))
(check-sat)
(pop)
(push)
(assert (not (le x0 weka.classifiers.Evaluation)))
(check-sat)
(pop)
(pop)
(pop)
